param set_len = 10;
param target_sum = 3584475441;
param values := [1] 384291559 [2] 534311617 [3] 142298842 [4] 1013536924 [5] 829261530 [6] 823073811 [7] 83565882 [8] 1055221849 [9] 526327790 [10] 848471876 ;
